unsat
(define-fun skel ((n180 Bool) (n174 Bool) (n114 Bool) (n87 Bool)) Bool (and n180 (and n174 (and n114 n87))))
0.04user 0.00system 0:00.05elapsed 96%CPU (0avgtext+0avgdata 26340maxresident)k
0inputs+8outputs (0major+1316minor)pagefaults 0swaps
